p edge 825 805
e 1 2
e 1 3
e 1 4
e 1 5
e 1 6
e 1 7
e 1 8
e 1 9
e 1 10
e 1 11
e 1 12
e 1 13
e 1 14
e 15 16
e 15 17
e 15 18
e 15 19
e 15 20
e 15 21
e 15 22
e 15 23
e 15 24
e 15 25
e 15 26
e 15 27
e 15 28
e 15 29
e 15 30
e 15 31
e 15 32
e 15 33
e 15 34
e 15 35
e 15 36
e 15 37
e 15 38
e 15 39
e 15 40
e 15 41
e 15 42
e 15 43
e 15 44
e 15 45
e 15 46
e 15 47
e 15 48
e 15 49
e 15 50
e 15 51
e 15 52
e 15 53
e 15 54
e 15 55
e 15 56
e 15 57
e 15 58
e 15 59
e 15 60
e 15 61
e 15 62
e 15 63
e 15 64
e 15 65
e 15 66
e 15 67
e 15 68
e 15 69
e 15 70
e 15 71
e 15 72
e 15 73
e 15 74
e 15 75
e 15 76
e 15 77
e 15 78
e 15 79
e 15 80
e 81 82
e 81 83
e 81 84
e 81 85
e 81 86
e 81 87
e 81 88
e 81 89
e 81 90
e 81 91
e 81 92
e 81 93
e 81 94
e 81 95
e 81 96
e 81 97
e 81 98
e 81 99
e 81 100
e 81 101
e 81 102
e 81 103
e 81 104
e 81 105
e 81 106
e 81 107
e 81 108
e 81 109
e 81 110
e 81 111
e 81 112
e 81 113
e 81 114
e 81 115
e 81 116
e 81 117
e 81 118
e 119 120
e 119 121
e 119 122
e 119 123
e 119 124
e 119 125
e 119 126
e 119 127
e 119 128
e 119 129
e 119 130
e 119 131
e 119 132
e 119 133
e 119 134
e 119 135
e 119 136
e 119 137
e 119 138
e 119 139
e 119 140
e 119 141
e 119 142
e 119 143
e 119 144
e 119 145
e 119 146
e 119 147
e 119 148
e 119 149
e 119 150
e 119 151
e 119 152
e 119 153
e 119 154
e 119 155
e 119 156
e 119 157
e 119 158
e 119 159
e 119 160
e 119 161
e 119 162
e 119 163
e 119 164
e 119 165
e 119 166
e 119 167
e 119 168
e 119 169
e 119 170
e 171 172
e 171 173
e 171 174
e 171 175
e 171 176
e 171 177
e 171 178
e 171 179
e 171 180
e 171 181
e 171 182
e 171 183
e 171 184
e 171 185
e 171 186
e 171 187
e 171 188
e 171 189
e 171 190
e 171 191
e 171 192
e 171 193
e 171 194
e 171 195
e 171 196
e 171 197
e 171 198
e 171 199
e 171 200
e 171 201
e 171 202
e 171 203
e 171 204
e 171 205
e 171 206
e 171 207
e 171 208
e 171 209
e 171 210
e 171 211
e 212 213
e 212 214
e 212 215
e 212 216
e 212 217
e 212 218
e 212 219
e 212 220
e 212 221
e 212 222
e 212 223
e 212 224
e 212 225
e 212 226
e 212 227
e 212 228
e 212 229
e 230 231
e 230 232
e 230 233
e 230 234
e 230 235
e 230 236
e 230 237
e 230 238
e 230 239
e 230 240
e 230 241
e 230 242
e 230 243
e 230 244
e 230 245
e 230 246
e 230 247
e 230 248
e 230 249
e 230 250
e 230 251
e 230 252
e 230 253
e 230 254
e 230 255
e 230 256
e 230 257
e 230 258
e 230 259
e 230 260
e 230 261
e 230 262
e 230 263
e 230 264
e 230 265
e 230 266
e 230 267
e 230 268
e 230 269
e 230 270
e 230 271
e 230 272
e 230 273
e 230 274
e 230 275
e 230 276
e 230 277
e 230 278
e 230 279
e 230 280
e 281 282
e 281 283
e 281 284
e 281 285
e 281 286
e 281 287
e 281 288
e 281 289
e 281 290
e 281 291
e 281 292
e 281 293
e 281 294
e 281 295
e 281 296
e 281 297
e 281 298
e 281 299
e 281 300
e 281 301
e 281 302
e 281 303
e 281 304
e 281 305
e 281 306
e 281 307
e 281 308
e 309 310
e 309 311
e 309 312
e 309 313
e 309 314
e 309 315
e 309 316
e 309 317
e 309 318
e 309 319
e 309 320
e 309 321
e 309 322
e 309 323
e 309 324
e 309 325
e 309 326
e 309 327
e 309 328
e 309 329
e 309 330
e 309 331
e 309 332
e 309 333
e 309 334
e 309 335
e 309 336
e 309 337
e 309 338
e 309 339
e 309 340
e 309 341
e 309 342
e 309 343
e 309 344
e 309 345
e 309 346
e 309 347
e 309 348
e 309 349
e 309 350
e 309 351
e 352 353
e 352 354
e 352 355
e 352 356
e 352 357
e 352 358
e 352 359
e 352 360
e 352 361
e 352 362
e 352 363
e 352 364
e 352 365
e 352 366
e 367 368
e 367 369
e 367 370
e 367 371
e 367 372
e 367 373
e 367 374
e 367 375
e 367 376
e 367 377
e 367 378
e 367 379
e 367 380
e 367 381
e 367 382
e 367 383
e 367 384
e 367 385
e 367 386
e 367 387
e 367 388
e 367 389
e 367 390
e 367 391
e 367 392
e 367 393
e 367 394
e 367 395
e 367 396
e 367 397
e 367 398
e 367 399
e 367 400
e 367 401
e 367 402
e 367 403
e 367 404
e 367 405
e 406 407
e 406 408
e 406 409
e 406 410
e 406 411
e 406 412
e 406 413
e 406 414
e 406 415
e 406 416
e 406 417
e 406 418
e 406 419
e 406 420
e 406 421
e 406 422
e 406 423
e 406 424
e 406 425
e 406 426
e 406 427
e 406 428
e 406 429
e 406 430
e 406 431
e 406 432
e 406 433
e 406 434
e 406 435
e 406 436
e 406 437
e 406 438
e 406 439
e 406 440
e 406 441
e 406 442
e 406 443
e 406 444
e 406 445
e 406 446
e 406 447
e 406 448
e 406 449
e 406 450
e 406 451
e 406 452
e 406 453
e 406 454
e 406 455
e 406 456
e 406 457
e 406 458
e 406 459
e 406 460
e 406 461
e 462 463
e 462 464
e 462 465
e 462 466
e 462 467
e 462 468
e 462 469
e 462 470
e 462 471
e 462 472
e 462 473
e 462 474
e 462 475
e 462 476
e 462 477
e 462 478
e 462 479
e 462 480
e 462 481
e 462 482
e 462 483
e 462 484
e 462 485
e 462 486
e 462 487
e 462 488
e 462 489
e 462 490
e 462 491
e 462 492
e 462 493
e 462 494
e 462 495
e 462 496
e 462 497
e 462 498
e 462 499
e 462 500
e 462 501
e 462 502
e 462 503
e 462 504
e 462 505
e 462 506
e 462 507
e 462 508
e 462 509
e 462 510
e 462 511
e 462 512
e 462 513
e 462 514
e 515 516
e 515 517
e 515 518
e 515 519
e 515 520
e 515 521
e 515 522
e 515 523
e 515 524
e 515 525
e 515 526
e 515 527
e 515 528
e 515 529
e 515 530
e 515 531
e 515 532
e 515 533
e 515 534
e 515 535
e 515 536
e 515 537
e 515 538
e 515 539
e 515 540
e 515 541
e 515 542
e 515 543
e 515 544
e 515 545
e 515 546
e 515 547
e 515 548
e 515 549
e 515 550
e 515 551
e 515 552
e 553 554
e 553 555
e 553 556
e 553 557
e 553 558
e 553 559
e 553 560
e 553 561
e 553 562
e 553 563
e 553 564
e 553 565
e 553 566
e 553 567
e 553 568
e 553 569
e 553 570
e 553 571
e 553 572
e 553 573
e 553 574
e 553 575
e 553 576
e 553 577
e 553 578
e 553 579
e 553 580
e 553 581
e 553 582
e 553 583
e 553 584
e 553 585
e 553 586
e 553 587
e 553 588
e 553 589
e 553 590
e 553 591
e 553 592
e 553 593
e 553 594
e 553 595
e 553 596
e 553 597
e 553 598
e 553 599
e 553 600
e 553 601
e 553 602
e 553 603
e 553 604
e 553 605
e 553 606
e 553 607
e 553 608
e 553 609
e 553 610
e 553 611
e 553 612
e 553 613
e 614 615
e 614 616
e 614 617
e 614 618
e 614 619
e 614 620
e 614 621
e 614 622
e 614 623
e 614 624
e 614 625
e 614 626
e 614 627
e 614 628
e 614 629
e 614 630
e 614 631
e 614 632
e 614 633
e 614 634
e 614 635
e 614 636
e 614 637
e 614 638
e 614 639
e 614 640
e 614 641
e 614 642
e 614 643
e 614 644
e 614 645
e 614 646
e 614 647
e 648 649
e 648 650
e 648 651
e 648 652
e 648 653
e 648 654
e 648 655
e 648 656
e 648 657
e 648 658
e 648 659
e 648 660
e 648 661
e 648 662
e 648 663
e 648 664
e 648 665
e 648 666
e 648 667
e 648 668
e 648 669
e 648 670
e 648 671
e 648 672
e 648 673
e 648 674
e 648 675
e 648 676
e 648 677
e 648 678
e 648 679
e 648 680
e 648 681
e 648 682
e 648 683
e 648 684
e 648 685
e 648 686
e 648 687
e 648 688
e 648 689
e 648 690
e 648 691
e 648 692
e 648 693
e 694 695
e 694 696
e 694 697
e 694 698
e 694 699
e 694 700
e 694 701
e 694 702
e 694 703
e 694 704
e 694 705
e 694 706
e 694 707
e 694 708
e 694 709
e 694 710
e 694 711
e 712 713
e 712 714
e 712 715
e 712 716
e 712 717
e 712 718
e 712 719
e 712 720
e 712 721
e 712 722
e 712 723
e 712 724
e 712 725
e 712 726
e 712 727
e 712 728
e 712 729
e 712 730
e 712 731
e 712 732
e 712 733
e 712 734
e 712 735
e 712 736
e 712 737
e 712 738
e 712 739
e 712 740
e 712 741
e 712 742
e 712 743
e 712 744
e 712 745
e 712 746
e 712 747
e 712 748
e 712 749
e 712 750
e 712 751
e 712 752
e 712 753
e 712 754
e 712 755
e 712 756
e 712 757
e 712 758
e 712 759
e 712 760
e 712 761
e 712 762
e 712 763
e 764 765
e 764 766
e 764 767
e 764 768
e 764 769
e 764 770
e 764 771
e 764 772
e 764 773
e 764 774
e 764 775
e 764 776
e 764 777
e 764 778
e 764 779
e 764 780
e 764 781
e 764 782
e 764 783
e 764 784
e 764 785
e 764 786
e 764 787
e 764 788
e 764 789
e 764 790
e 764 791
e 764 792
e 764 793
e 764 794
e 764 795
e 764 796
e 764 797
e 764 798
e 764 799
e 764 800
e 764 801
e 764 802
e 764 803
e 764 804
e 764 805
e 764 806
e 764 807
e 764 808
e 764 809
e 764 810
e 764 811
e 764 812
e 764 813
e 764 814
e 764 815
e 764 816
e 764 817
e 764 818
e 764 819
e 764 820
e 764 821
e 764 822
e 764 823
e 764 824
e 764 825
